
Gurobi 9.0.2 (win64) logging started Sun Dec 27 07:16:46 2020

Changed value of parameter logfile to result\SunCable-20201227T0415\scenario_2030_p30_cab3800.log
   Prev:   Default: 
Gurobi Optimizer version 9.0.2 build v9.0.2rc0 (win64)
Optimize a model with 1243974 rows, 762167 columns and 3491691 nonzeros
Model fingerprint: 0x5fde812b
Coefficient statistics:
  Matrix range     [1e-07, 4e+05]
  Objective range  [1e+00, 1e+00]
  Bounds range     [0e+00, 0e+00]
  RHS range        [2e-05, 3e+08]
Warning: Model contains large matrix coefficient range
         Consider reformulating model or setting NumericFocus parameter
         to avoid numerical issues.

Concurrent LP optimizer: primal simplex, dual simplex, and barrier
Showing barrier log only...

Presolve removed 1068997 rows and 595935 columns
Presolve time: 2.70s
Presolved: 174977 rows, 280098 columns, 652320 nonzeros

Ordering time: 0.07s

Barrier statistics:
 Dense cols : 5
 AA' NZ     : 6.422e+05
 Factor NZ  : 3.150e+06 (roughly 200 MBytes of memory)
 Factor Ops : 7.040e+07 (less than 1 second per iteration)
 Threads    : 30

                  Objective                Residual
Iter       Primal          Dual         Primal    Dual     Compl     Time
   0  -2.51778934e+16 -1.07294029e+15  7.34e+06 2.55e+04  3.02e+12     3s
   1  -5.46484124e+15 -1.08609963e+15  1.59e+06 4.56e+06  8.52e+11     3s
   2  -1.75499038e+15 -1.02428634e+15  5.12e+05 8.63e+05  2.46e+11     4s
   3  -3.45307184e+14 -8.98965806e+14  1.02e+05 1.37e+05  4.94e+10     4s
   4  -7.79017591e+13 -5.52866168e+14  2.21e+04 3.75e+04  1.18e+10     4s
   5  -2.42217903e+13 -3.73578872e+14  7.03e+03 1.86e+04  4.53e+09     5s
   6  -7.29704985e+12 -2.62673188e+14  2.30e+03 9.23e+03  1.92e+09     5s
   7  -2.24930243e+12 -1.01295928e+14  8.24e+02 8.02e+02  4.34e+08     5s
   8   4.49286710e+11 -2.78041580e+13  2.00e+01 4.10e+01  5.54e+07     5s
   9   3.36525573e+11 -1.89054227e+12  6.45e+00 2.63e+00  4.32e+06     5s
  10   1.09851249e+11 -7.44383212e+11  1.28e+00 8.44e-01  1.57e+06     6s
  11   3.82107461e+10 -2.98366115e+11  2.89e-01 1.53e-01  6.04e+05     6s
  12   1.90051309e+10 -1.15839104e+11  1.09e-01 5.59e-09  2.41e+05     6s
  13   1.15767173e+10 -3.73714930e+10  3.92e-02 5.59e-09  8.72e+04     6s
  14   9.05503868e+09 -1.02821383e+10  1.58e-02 5.59e-09  3.44e+04     7s
  15   8.00680341e+09 -6.03011498e+08  6.96e-03 5.59e-09  1.53e+04     7s
  16   7.53413952e+09  3.06091484e+09  3.17e-03 5.59e-09  7.94e+03     7s
  17   7.31704049e+09  4.70605999e+09  1.69e-03 3.73e-09  4.63e+03     7s
  18   7.20263399e+09  5.73514262e+09  9.38e-04 3.73e-09  2.60e+03     8s
  19   7.15262083e+09  5.94430081e+09  6.14e-04 2.79e-09  2.14e+03     8s
  20   7.10912765e+09  6.12313686e+09  3.29e-04 2.79e-09  1.74e+03     8s
  21   7.08057742e+09  6.53065593e+09  1.72e-04 1.86e-09  9.69e+02     8s
  22   7.06642134e+09  6.60741622e+09  9.57e-05 1.86e-09  8.08e+02     9s
  23   7.06193743e+09  6.68019523e+09  7.66e-05 1.86e-09  6.72e+02     9s
  24   7.05381761e+09  6.75663417e+09  4.01e-05 1.86e-09  5.23e+02     9s
  25   7.04800074e+09  6.79885805e+09  1.63e-05 1.86e-09  4.38e+02     9s
  26   7.04505127e+09  6.91396114e+09  8.35e-06 2.79e-09  2.31e+02    10s
  27   7.04391339e+09  6.92745149e+09  6.49e-06 1.86e-09  2.05e+02    10s
  28   7.04383536e+09  6.93578596e+09  6.30e-06 1.86e-09  1.90e+02    10s
  29   7.04277631e+09  6.94889196e+09  4.22e-06 1.86e-09  1.65e+02    10s
  30   7.04202346e+09  6.96411432e+09  2.81e-06 2.79e-09  1.37e+02    11s
  31   7.04177481e+09  6.97186488e+09  2.42e-06 2.79e-09  1.23e+02    11s
  32   7.04122574e+09  6.99184263e+09  1.43e-06 1.86e-09  8.68e+01    11s
  33   7.04084861e+09  7.00205514e+09  7.36e-07 2.79e-09  6.82e+01    12s
  34   7.04064153e+09  7.01028317e+09  5.09e-07 1.86e-09  5.34e+01    12s
  35   7.04019408e+09  7.02082258e+09  1.80e-07 1.86e-09  3.41e+01    12s
  36   7.04012878e+09  7.02340733e+09  1.37e-07 1.86e-09  2.94e+01    13s
  37   7.03995570e+09  7.02649125e+09  1.55e-07 1.86e-09  2.37e+01    13s
  38   7.03990482e+09  7.03292923e+09  1.45e-07 1.86e-09  1.23e+01    13s
  39   7.03988507e+09  7.03351583e+09  8.18e-08 1.86e-09  1.12e+01    13s
  40   7.03988300e+09  7.03511781e+09  6.98e-08 1.86e-09  8.38e+00    13s
  41   7.03988626e+09  7.03586541e+09  7.68e-08 1.86e-09  7.07e+00    14s
  42   7.03986215e+09  7.03819173e+09  6.24e-08 1.86e-09  2.94e+00    14s
  43   7.03983844e+09  7.03978466e+09  1.91e-07 2.79e-09  9.46e-02    14s
  44   7.03983776e+09  7.03983565e+09  5.26e-07 2.79e-09  3.70e-03    14s
  45   7.03983776e+09  7.03983776e+09  2.36e-07 9.14e-09  4.03e-07    15s
  46   7.03983776e+09  7.03983776e+09  1.20e-07 5.76e-09  1.02e-11    15s

Barrier solved model in 46 iterations and 14.83 seconds
Optimal objective 7.03983776e+09

Crossover log...

   20863 DPushes remaining with DInf 0.0000000e+00                15s
       0 DPushes remaining with DInf 0.0000000e+00                17s
Warning: Markowitz tolerance tightened to 0.5

   79225 PPushes remaining with PInf 0.0000000e+00                17s
    2545 PPushes remaining with PInf 0.0000000e+00                20s
       0 PPushes remaining with PInf 0.0000000e+00                21s

  Push phase complete: Pinf 0.0000000e+00, Dinf 4.0309757e-08     21s

Extra one simplex iteration after uncrush
Iteration    Objective       Primal Inf.    Dual Inf.      Time
   82457    7.0398378e+09   0.000000e+00   0.000000e+00     23s

Solved with barrier
Solved in 82457 iterations and 22.81 seconds
Optimal objective  7.039837757e+09
Warning: unscaled primal violation = 0.000871006 and residual = 0.000871006
